p tw 82 548
0 1
0 2
0 3
0 4
0 5
0 26
0 32
0 33
0 34
0 35
0 36
0 17
0 29
0 53
0 54
0 55
0 7
0 28
0 40
0 60
0 12
0 45
0 62
0 65
0 68
0 19
0 42
0 59
0 79
0 41
0 52
0 80
1 2
1 3
1 4
1 5
1 11
1 23
1 38
1 43
1 59
1 72
2 3
2 4
2 5
2 10
2 36
2 39
2 43
2 44
2 45
2 6
2 24
2 25
2 34
2 69
2 70
3 4
3 5
3 27
3 28
3 29
3 30
3 31
3 19
3 42
3 59
3 79
4 5
4 27
4 28
4 29
4 30
4 31
5 19
5 42
5 59
5 79
6 7
6 8
6 9
6 10
6 11
6 12
6 24
6 25
6 34
6 69
6 70
7 8
7 9
7 10
7 11
7 12
7 28
7 34
7 40
7 54
7 60
7 30
7 32
7 50
7 59
7 63
7 81
8 9
8 10
8 11
8 12
8 20
8 38
8 50
8 52
8 54
8 57
9 10
9 11
9 12
10 11
10 12
10 36
10 39
10 43
10 44
10 45
10 25
10 30
10 56
10 57
10 58
10 59
11 12
11 23
11 38
11 43
11 59
11 72
12 24
12 34
12 45
12 49
12 50
12 33
12 62
12 65
12 68
13 14
13 15
13 16
13 17
13 18
13 19
13 22
13 24
13 49
13 51
13 52
13 32
13 37
13 48
13 71
13 74
13 75
13 43
13 66
13 69
14 15
14 16
14 17
14 18
14 19
15 16
15 17
15 18
15 19
15 20
15 27
15 36
15 44
15 66
15 78
16 17
16 18
16 19
17 18
17 19
17 29
17 53
17 54
17 55
17 24
17 63
17 65
17 66
17 67
18 19
19 26
19 31
19 36
19 46
19 47
19 48
19 22
19 24
19 49
19 51
19 52
19 63
19 65
19 66
19 67
19 42
19 59
19 79
20 21
20 22
20 23
20 24
20 25
20 26
20 54
20 64
20 68
20 71
20 72
20 73
20 27
20 36
20 44
20 66
20 78
20 38
20 50
20 52
20 57
21 22
21 23
21 24
21 25
21 26
22 23
22 24
22 25
22 26
22 49
22 51
22 52
23 24
23 25
23 26
23 38
23 43
23 59
23 72
24 25
24 26
24 34
24 45
24 49
24 50
24 51
24 52
24 63
24 65
24 66
24 67
24 69
24 70
25 26
25 30
25 56
25 57
25 58
25 59
25 34
25 69
25 70
25 38
25 52
25 60
25 71
25 76
26 32
26 33
26 34
26 35
26 36
26 31
26 46
26 47
26 48
27 28
27 29
27 30
27 31
27 36
27 44
27 66
27 78
28 29
28 30
28 31
28 34
28 40
28 54
28 60
28 35
28 51
28 68
28 75
28 76
28 77
29 30
29 31
29 53
29 54
29 55
29 50
29 59
29 61
29 62
29 63
29 64
30 31
30 56
30 57
30 58
30 59
30 32
30 50
30 63
30 81
31 36
31 46
31 47
31 48
32 33
32 34
32 35
32 36
32 37
32 48
32 71
32 74
32 75
32 50
32 59
32 63
32 81
33 34
33 35
33 36
33 45
33 62
33 65
33 68
34 35
34 36
34 45
34 49
34 50
34 40
34 54
34 60
34 69
34 70
35 36
35 51
35 68
35 75
35 76
35 77
35 41
35 42
35 52
35 62
35 80
36 39
36 43
36 44
36 45
36 46
36 47
36 48
36 66
36 78
37 38
37 39
37 40
37 41
37 42
37 48
37 71
37 74
37 75
38 39
38 40
38 41
38 42
38 52
38 60
38 71
38 76
38 50
38 54
38 57
38 43
38 59
38 72
39 40
39 41
39 42
39 43
39 44
39 45
40 41
40 42
40 54
40 60
41 42
41 52
41 62
41 80
42 59
42 79
42 52
42 62
42 80
43 44
43 45
43 59
43 72
43 48
43 49
43 51
43 66
43 69
44 45
44 66
44 78
45 49
45 50
45 62
45 65
45 68
46 47
46 48
47 48
48 71
48 74
48 75
48 49
48 51
48 66
48 69
49 50
49 51
49 52
49 66
49 69
50 59
50 61
50 62
50 63
50 64
50 52
50 54
50 57
50 81
51 52
51 68
51 75
51 76
51 77
51 66
51 69
52 60
52 71
52 76
52 54
52 57
52 62
52 80
53 54
53 55
54 55
54 60
54 64
54 68
54 71
54 72
54 73
54 57
56 57
56 58
56 59
57 58
57 59
58 59
59 61
59 62
59 63
59 64
59 79
59 72
59 81
60 71
60 76
61 62
61 63
61 64
62 63
62 64
62 65
62 68
62 80
63 64
63 65
63 66
63 67
63 81
64 68
64 71
64 72
64 73
65 66
65 67
65 68
66 67
66 78
66 69
68 71
68 72
68 73
68 75
68 76
68 77
69 70
71 72
71 73
71 74
71 75
71 76
72 73
74 75
75 76
75 77
76 77
